* #variable= 50 #constraint= 1
min: -188 x1 -706 x2 -632 x3 -300 x4 -870 x5 -956 x6 -488 x7 -488 x8 -728 x9 -414 x10 -526 x11 -526 x12 -874 x13 -670 x14 -680 x15 -504 x16 -906 x17 -396 x18 -198 x19 -344 x20 -624 x21 -476 x22 -624 x23 -416 x24 -456 x25 -368 x26 -832 x27 -822 x28 -882 x29 -396 x30 -634 x31 -424 x32 -490 x33 -594 x34 -380 x35 -990 x36 -478 x37 -336 x38 -794 x39 -566 x40 -226 x41 -470 x42 -28 x43 -380 x44 -720 x45 -864 x46 -716 x47 -572 x48 -362 x49 -654 x50 ;
-188 x1 -706 x2 -632 x3 -300 x4 -870 x5 -956 x6 -488 x7 -488 x8 -728 x9 -414 x10 -526 x11 -526 x12 -874 x13 -670 x14 -680 x15 -504 x16 -906 x17 -396 x18 -198 x19 -344 x20 -624 x21 -476 x22 -624 x23 -416 x24 -456 x25 -368 x26 -832 x27 -822 x28 -882 x29 -396 x30 -634 x31 -424 x32 -490 x33 -594 x34 -380 x35 -990 x36 -478 x37 -336 x38 -794 x39 -566 x40 -226 x41 -470 x42 -28 x43 -380 x44 -720 x45 -864 x46 -716 x47 -572 x48 -362 x49 -654 x50 >= -6985 ;